NAME : P111212.72984.tour
COMMENT : Length = 72984
COMMENT : Found by LKH-3 [Keld Helsgaun] Tue Dec 17 14:07:02 2024
TYPE : TOUR
DIMENSION : 120
TOUR_SECTION
1
111
2
73
16
40
12
39
78
31
96
104
19
48
51
87
37
47
15
26
70
18
55
94
77
56
105
106
17
24
61
60
53
69
76
88
64
84
109
58
101
93
13
68
89
41
44
27
28
98
11
29
46
43
54
85
80
86
71
92
97
110
30
65
66
36
79
38
45
20
99
49
52
107
75
91
67
50
14
33
25
112
3
113
4
114
5
35
23
63
34
102
21
115
6
116
7
108
90
59
74
32
95
42
83
22
57
117
8
118
9
62
81
103
72
82
100
119
10
120
-1
EOF
